35 17
28 18
25 21
24 12
23 3
15 10
11 14
5 5
4 18
10 20
16 22
18 24
20 26
22 27
25 30
26 35
27 43
20 40
17 34
14 37
10 43
6 38
5 30
11 31
15 30
12 24
15 19
18 18
20 20
19 21
22 22
21 24
25 24
26 27
30 25
36 26
40 25
45 30
41 37
37 31
35 35
35 40
37 47
41 49
47 47
49 42
53 43
55 45
57 48
53 52
55 54
55 60
49 58
45 65
40 60
37 56
31 52
26 52
20 50
15 47
13 52
8 56
2 48
2 60
6 68
15 77
20 65
15 60
24 58
30 60
27 69
31 67
35 69
49 73
62 77
57 68
63 65
65 55
61 52
64 42
65 35
56 39
56 37
50 35
57 29
55 20
63 23
65 20
60 12
67 5
55 5
53 12
49 11
46 13
47 16
45 20
44 17
45 10
42 7
30 5
32 12
35 17
